submitit INFO (2023-04-30 13:43:43,570) - Starting with JobEnvironment(job_id=27528, hostname=cpunode24, local_rank=1(5), node=0(1), global_rank=1(5))
submitit INFO (2023-04-30 13:43:43,570) - Loading pickle: /h/30/pashootan/Matrix-Mult-CP/src/../logs/2x2x2_5_Apr30_13:43:41/27528_submitted.pkl
 ! --------------------------------------------------- CP Optimizer 22.1.1.0 --
 ! Satisfiability problem - 60 variables, 64 constraints
 ! TimeLimit            = 7200
 ! Workers              = 8
 ! LogPeriod            = 10000000
 ! RandomSeed           = 7179
 ! Initial process time : 0.02s (0.02s extraction + 0.00s propagation)
 !  . Log search space  : 95.1 (before), 95.1 (after)
 !  . Memory usage      : 398.3 kB (before), 398.3 kB (after)
 ! Using parallel search with 8 workers.
 ! ----------------------------------------------------------------------------
 !               Branches  Non-fixed    W       Branch decision
                   10000k          6    8   F     1 != W2_3
                   10000k          4    5         0 != U3_2
                   10000k          5    3   F    -1 != W3_1
                   10000k          4    2   F     0 != U4_0
                   10000k          4    1   F     1 != V3_3
                   10000k          6    7   F     1 != W0_1
                   10000k          5    6        -1  = W2_0
                   10000k          5    4   F     1  = U3_3
                   20000k          6    8        -1  = U3_0
                   20000k          8    7         0 != U0_1
                   20000k          5    5   F     1 != W3_1
                   20000k          6    2   F     1  = U4_2
                   20000k          6    1         1  = W3_0
                   20000k          7    3        -1 != U0_1
                   20000k          7    6   F     0  = W1_3
                   20000k          7    4         1 != U0_2
                   30000k          4    8        -1  = V4_3
                   30000k          8    3   F    -1  = W2_1
                   30000k          6    5   F     1  = U0_1
                   30000k          8    7   F     0  = W2_2
 ! Time = 292.33s, Average fail depth = 19, Memory usage = 142.0 MB
 !               Branches  Non-fixed    W       Branch decision
                   30000k          7    6   F    -1  = W2_2
                   30000k          6    2   F     0  = U2_2
                   30000k          7    1   F     1  = U2_1
                   30000k          6    4        -1  = W3_0
                   40000k          5    8   F    -1 != W2_3
                   40000k          7    3         0  = U4_0
                   40000k          7    5   F    -1  = W1_1
                   40000k          8    7   F     1  = W1_2
                   40000k          7    6   F     1  = U1_1
                   40000k          7    1   F    -1 != U3_1
                   40000k          7    2   F    -1  = V2_0
                   40000k          6    4   F     1  = V1_2
                   50000k          6    8   F    -1 != W3_2
                   50000k          7    3   F     1 != W2_2
                   50000k          7    5   F     1 != V1_2
                   50000k          8    1   F     0  = U3_1
                   50000k          7    2   F    -1 != W3_0
                   50000k          8    7   F     0  = V4_1
                   50000k          7    6         1 != U0_0
                   50000k          7    4   F    -1  = V3_1
 ! Time = 499.38s, Average fail depth = 19, Memory usage = 230.8 MB
 !               Branches  Non-fixed    W       Branch decision
                   60000k          7    8   F     0  = U4_0
                   60000k          7    3   F    -1  = V2_1
                   60000k          7    2         1  = V3_1
                   60000k          6    5   F    -1  = V3_1
                   60000k          7    1   F     0 != U3_2
                   60000k          7    6        -1 != W2_1
                   60000k          8    7   F    -1 != U2_0
                   60000k          7    4   F     0 != V4_3
                   70000k          5    8            -
                   70000k          8    3   F     0  = V1_2
                   70000k          7    5        -1 != U3_3
                   70000k          6    1   F     1 != U0_1
                   70000k          7    2   F    -1  = V4_2
                   70000k          9    6   F     1  = U3_2
                   70000k          6    4   F     0 != V4_0
                   70000k          7    7        -1  = U0_0
                   80000k          4    8         0  = V3_2
                   80000k          8    3         0  = W3_3
                   80000k          7    5        -1  = W1_3
                   80000k          7    2   F     1 != V4_1
 ! Time = 799.91s, Average fail depth = 19, Memory usage = 358.2 MB
 !               Branches  Non-fixed    W       Branch decision
                   80000k          7    1        -1  = W2_0
                   80000k          8    6        -1 != V4_2
                   80000k          7    4        -1  = V3_1
                   80000k          8    7        -1  = U2_1
                   90000k          5    8        -1  = U1_3
                   90000k          8    3         0  = W4_1
                   90000k          6    5   F     1 != U4_2
                   90000k          8    2         0 != W0_3
                   90000k          7    1         1 != V2_2
                   90000k          7    6   F    -1  = V1_1
                   90000k          8    7   F     1  = V3_0
                   90000k          8    4        -1  = V1_0
                     100M          5    8   F        -
                     100M          7    2   F     0  = W1_3
                     100M          8    1         1 != W0_3
                     100M          8    3   F     1  = V4_1
                     100M          6    5   F     0  = U2_1
                     100M          7    4        -1 != V1_2
                     100M          6    6   F    -1 != W0_0
                     100M          6    7         1 != U2_1
 ! Time = 1017.02s, Average fail depth = 19, Memory usage = 451.8 MB
 !               Branches  Non-fixed    W       Branch decision
                     110M          5    8   F     1  = U1_3
                     110M          8    2        -1  = W0_1
                     110M          7    3   F    -1  = W0_0
                     110M          6    5         0  = U4_2
                     110M          7    1         1  = V4_1
                     110M          7    4   F     0  = W1_0
                     110M          7    6         1 != U3_1
                     110M          8    7   F    -1  = U3_2
                     120M          4    8         0 != W1_1
                     120M          8    2        -1  = V1_1
                     120M          6    5        -1 != W2_3
                     120M          7    1        -1 != V3_1
                     120M          9    3   F     1 != U3_1
                     120M          7    4   F    -1 != V2_2
                     120M          8    6        -1  = V1_2
                     120M          6    7   F    -1  = U2_1
                     130M          5    8   F    -1 != U2_0
                     130M          6    1        -1  = V3_2
                     130M          6    2   F     1 != U0_2
                     130M          6    5   F     0  = U1_0
 ! Time = 1309.09s, Average fail depth = 19, Memory usage = 573.6 MB
 !               Branches  Non-fixed    W       Branch decision
                     130M          8    3         1 != V2_0
                     130M          7    4        -1  = W3_1
                     130M          8    6        -1 != W0_3
                     130M          7    7         0  = U1_1
                     140M          5    8        -1 != W0_3
                     140M          6    1   F    -1 != V3_1
                     140M          6    5   F    -1 != W4_1
                     140M          6    2   F    -1  = U1_1
                     140M          6    3         0  = V3_2
                     140M          8    4         0  = U3_3
                     140M          7    6         0 != U3_1
                     140M          6    7   F     1  = W0_3
                     150M          4    8   F    -1  = W3_0
                     150M          7    5   F     1  = V2_1
                     150M          8    1         1 != U3_1
                     150M          6    2         0 != V3_2
                     150M          8    3         1 != W4_3
                     150M          6    4   F     0  = W3_3
                     150M          8    6   F     1 != U4_2
                     150M          7    7   F     0 != V2_1
 ! Time = 1552.77s, Average fail depth = 19, Memory usage = 674.1 MB
 !               Branches  Non-fixed    W       Branch decision
                     160M          4    8            -
                     160M          7    1   F     1  = U1_2
                     160M          6    5         0 != U4_3
                     160M          6    2   F    -1 != V0_1
                     160M          8    3        -1 != U2_0
                     160M          8    4         0  = V2_1
                     160M          9    6         1 != U4_0
                     160M          7    7   F     1  = W3_1
                     170M          5    8   F    -1  = W3_2
                     170M          7    1   F     1  = W0_0
                     170M          7    5        -1  = W4_1
                     170M          7    3        -1  = V3_2
                     170M          7    2         1  = U4_2
                     170M          7    4        -1  = U1_0
                     170M          6    6   F    -1  = W4_1
                     170M          7    7   F    -1 != V4_2
                     180M          4    8   F     0 != V0_1
                     180M          8    1   F     0  = W3_0
                     180M          8    5   F     1 != V4_2
                     180M          7    2         1  = U0_1
 ! Time = 1825.25s, Average fail depth = 19, Memory usage = 791.7 MB
 !               Branches  Non-fixed    W       Branch decision
                     180M          9    3        -1 != W0_1
                     180M          7    4         0  = W3_3
                     180M          8    6   F     1  = V4_0
                     180M          8    7        -1  = U2_1
                     190M          4    8   F    -1  = U2_3
                     190M          7    1        -1  = W0_3
                     190M          7    5         0 != U3_2
                     190M          8    3        -1 != W3_1
                     190M          7    2   F    -1  = U0_1
                     190M          7    4         0  = W1_3
                     190M          7    6   F    -1 != V4_3
                     190M          7    7   F     1  = W4_1
                     200M          5    8            -
                     200M          7    1   F    -1  = V2_1
                     200M          7    5   F     0  = W3_1
                     200M          7    2   F     0  = W2_1
                     200M          8    4   F    -1 != W4_3
                     200M          6    3        -1 != U2_1
                     200M          7    6        -1  = W1_1
                     200M          7    7         0 != U1_1
 ! Time = 2071.91s, Average fail depth = 19, Memory usage = 892.0 MB
 !               Branches  Non-fixed    W       Branch decision
                     210M          4    8            -
                     210M          8    1         0 != W2_1
                     210M          7    5         0  = U1_2
                     210M          8    2   F    -1 != W4_1
                     210M          6    4   F     1 != U4_1
                     210M          7    3   F     0 != U3_2
                     210M          7    6   F     1 != U3_1
                     210M          8    7   F     0  = W3_3
                     220M          7    1        -1  = V2_1
                     220M          5    8   F    -1  = V3_1
                     220M          6    5        -1  = V3_0
                     220M          7    2   F     1 != W4_3
                     220M          7    3   F     1  = U4_3
                     220M          7    4   F     0 != V2_3
                     220M          7    6        -1  = U0_0
                     220M          9    7   F     1  = W4_1
                     230M          7    1         0  = U0_0
                     230M          4    8         1  = V4_3
                     230M          7    5   F     0  = W0_1
                     230M          7    2   F     1 != V4_1
 ! Time = 2346.59s, Average fail depth = 19, Memory usage = 1.0 GB
 !               Branches  Non-fixed    W       Branch decision
                     230M          7    4   F     1  = U4_1
                     230M          6    6   F    -1  = W4_0
                     230M          8    3   F    -1  = W2_0
                     230M          7    7        -1 != V1_2
                     240M          7    1   F    -1  = W2_3
                     240M          4    8   F    -1  = U4_0
                     240M          6    5   F    -1  = W0_0
                     240M          6    2   F     1  = V3_1
                     240M          8    3        -1 != W1_1
                     240M          8    4   F     1 != W1_3
                     240M          7    6         0 != W4_3
                     240M          7    7   F    -1  = U4_1
                     250M          8    1        -1  = V3_1
                     250M          4    8   F     1  = W0_3
                     250M          8    5   F     0  = U4_1
                     250M          7    2   F     1 != W1_0
                     250M          7    6   F     0  = W4_1
                     250M          8    3   F    -1 != V4_3
                     250M          7    4         1  = W2_0
                     250M          8    7         1  = V3_0
 ! Time = 2592.73s, Average fail depth = 19, Memory usage = 1.1 GB
 !               Branches  Non-fixed    W       Branch decision
                     260M          7    1         0 != U4_1
                     260M          4    8   F    -1  = U1_0
                     260M          9    5        -1 != U4_0
                     260M          6    2         0 != W0_1
                     260M          8    4   F     0 != U3_1
                     260M          8    6         0 != V3_3
                     260M          8    3         0 != V1_2
                     260M          8    7   F     0 != U0_2
                     270M          7    1   F     0  = W2_0
                     270M          4    8        -1 != W1_1
                     270M          8    5         1  = W4_0
                     270M          8    2   F     1  = W2_3
                     270M          7    4   F     0 != V2_3
                     270M          9    3        -1 != W3_2
                     270M          8    6         1  = U2_2
                     270M          8    7   F     1  = U2_2
                     280M          7    1   F     1  = U0_1
                     280M          4    8   F        -
                     280M          7    5   F    -1  = W1_1
                     280M          8    2   F    -1  = U3_1
 ! Time = 2862.47s, Average fail depth = 19, Memory usage = 1.2 GB
 !               Branches  Non-fixed    W       Branch decision
                     280M          8    3   F     1  = V4_3
                     280M          7    4        -1 != W4_3
                     280M          8    6   F     1  = U3_2
                     280M          7    7        -1  = V1_1
                     290M          4    8         1 != U1_2
                     290M          7    1   F     1  = U0_1
                     290M          8    5   F     1 != U3_2
                     290M          7    2   F     0  = W4_3
                     290M          8    4   F    -1  = U2_1
                     290M          9    3   F     0 != U3_0
                     290M          7    6         1  = V0_2
                     290M          8    7         0 != V2_0
                     300M          4    8        -1 != U2_3
                     300M          7    1   F     1  = U1_2
                     300M          6    5   F     0  = W4_3
                     300M          8    2        -1  = V2_2
                     300M          6    4        -1  = W4_1
                     300M         10    3   F    -1 != V1_1
                     300M          6    6   F     0 != W1_0
                     300M          7    7        -1 != W1_0
 ! Time = 3117.45s, Average fail depth = 19, Memory usage = 1.3 GB
 !               Branches  Non-fixed    W       Branch decision
                     310M          8    1        -1 != U1_1
                     310M          4    8   F    -1 != W1_1
                     310M          6    5         1  = V0_2
                     310M          7    4         1  = U4_0
                     310M          7    2   F     0 != W1_1
                     310M          7    3         0  = U0_3
                     310M          7    6         1 != V2_0
                     310M          7    7   F     0 != V0_3
                     320M          7    1         1 != U3_1
                     320M          4    8        -1  = W1_2
                     320M          8    5   F     1 != W1_0
                     320M          7    4        -1 != U2_1
                     320M          7    2         1  = U0_2
                     320M          8    3         1 != V0_1
                     320M          7    6        -1 != W4_0
                     320M          7    7   F     1  = W2_0
                     330M          7    1         1 != V4_2
                     330M          4    8            -
                     330M          8    5   F     0  = V3_3
                     330M          7    4   F    -1  = W0_0
 ! Time = 3390.40s, Average fail depth = 19, Memory usage = 1.4 GB
 !               Branches  Non-fixed    W       Branch decision
                     330M          8    2         0  = U3_1
                     330M          8    3   F    -1 != V4_1
                     330M          7    6        -1  = V4_1
                     330M          9    7   F    -1  = V0_1
                     340M          7    1        -1 != W2_0
                     340M          4    8   F    -1 != W1_3
                     340M          7    5   F     0 != V1_1
                     340M          8    4   F     0 != V2_1
                     340M          8    2         0 != U3_1
                     340M          8    3        -1  = U0_0
                     340M          7    6   F    -1 != U0_0
                     340M          7    7   F    -1  = W3_3
                     350M          4    8         0  = V0_1
                     350M          8    5         0 != U2_3
                     350M          7    1         1  = V4_1
                     350M          8    4   F     1  = U1_0
                     350M          7    2   F     1 != V3_3
                     350M          8    3   F     0 != V0_1
                     350M          9    6   F     0 != U2_0
                     350M          8    7   F    -1  = U4_1
 ! Time = 3640.50s, Average fail depth = 19, Memory usage = 1.5 GB
 !               Branches  Non-fixed    W       Branch decision
                     360M          4    8   F    -1  = W3_3
                     360M          7    5        -1 != U2_2
                     360M          8    1   F     0 != W4_0
                     360M          8    4         1  = U4_0
                     360M          7    2   F     1 != U4_2
                     360M          7    3   F    -1 != U2_0
                     360M          7    6         1  = W0_0
                     360M          7    7   F    -1  = V0_2
                     370M          4    8   F        -
                     370M          7    1         0  = U4_1
                     370M          7    5         1 != W4_3
                     370M          8    4         1 != V0_2
                     370M          8    3   F     0  = W2_3
                     370M          8    2   F     1  = V3_3
                     370M          7    6   F     0 != W3_1
                     370M         12    7        -1  = U4_2
                     380M          4    8   F        -
                     380M          7    1        -1 != V1_3
                     380M          7    5   F    -1  = U0_1
                     380M          8    4        -1  = U4_1
 ! Time = 3906.83s, Average fail depth = 19, Memory usage = 1.7 GB
 !               Branches  Non-fixed    W       Branch decision
                     380M          6    2         0 != U0_2
                     380M          8    3         1  = U4_1
                     380M          8    6   F     1  = W1_3
                     380M          7    7         0 != U4_1
                     390M          7    1   F     0  = W3_1
                     390M          4    8   F    -1 != U3_0
                     390M          7    5   F     0  = W3_1
                     390M          7    4         1  = V2_0
                     390M          7    2   F    -1 != W3_3
                     390M          7    3        -1 != U3_3
                     390M          8    6   F    -1  = U3_0
                     390M          7    7        -1  = V1_1
                     400M          4    8         1  = W2_2
                     400M          7    1         0  = V2_2
                     400M          8    5   F    -1 != W0_0
                     400M          7    4   F     1  = U2_0
                     400M          7    2   F     0  = V0_1
                     400M         13    3        -1 != V1_2
                     400M          8    6         0  = U0_2
                     400M          7    7   F     0  = U0_1
 ! Time = 4161.34s, Average fail depth = 19, Memory usage = 1.8 GB
 !               Branches  Non-fixed    W       Branch decision
                     410M          6    1   F     1 != V0_3
                     410M          4    8         1 != U1_1
                     410M          7    5   F     1  = V4_1
                     410M          7    4        -1  = V2_0
                     410M          7    2   F     0  = W0_0
                     410M          6    3   F    -1  = U2_2
                     410M          7    6   F    -1 != W1_0
                     410M          7    7         0  = U2_1
                     420M          4    8   F    -1  = W0_3
                     420M          7    1         0 != U1_2
                     420M          7    5   F     1  = V0_1
                     420M          8    4        -1 != W3_3
                     420M          8    2        -1  = V1_3
                     420M         12    3   F     1  = W1_2
                     420M          9    6   F     0  = V1_1
                     420M          7    7   F     1 != W0_2
                     430M          7    1         0  = V0_1
                     430M          4    8         1  = V2_2
                     430M          8    5   F     0 != V4_3
                     430M          8    4   F     1  = U1_3
 ! Time = 4412.54s, Average fail depth = 19, Memory usage = 1.9 GB
 !               Branches  Non-fixed    W       Branch decision
                     430M          7    2        -1 != W0_0
                     430M         10    3   F     1 != U1_1
                     430M          8    6        -1  = U3_2
                     430M          7    7        -1 != W2_0
                     440M          8    1         1 != W3_0
                     440M          4    8   F     0  = V4_0
                     440M          8    5        -1 != V2_2
                     440M          8    4         0  = W3_0
                     440M          7    2        -1  = W0_0
                     440M          8    3         0 != W0_3
                     440M          8    6   F    -1  = W1_1
                     440M          8    7        -1  = U0_1
                     450M          7    1         0  = U4_1
                     450M          7    5   F     1  = V2_1
                     450M          4    8   F     1 != U0_2
                     450M          7    4   F     0 != W4_1
                     450M          8    2        -1 != V3_1
                     450M          6    6         1  = U3_2
                     450M          8    3   F     0  = V1_1
                     450M          8    7   F     0  = W3_3
 ! Time = 4693.07s, Average fail depth = 19, Memory usage = 2.0 GB
 !               Branches  Non-fixed    W       Branch decision
                     460M          7    1         1  = V4_1
                     460M          8    5         1  = U2_1
                     460M          4    8   F    -1  = V1_1
                     460M          8    4         1 != W2_1
                     460M          8    2   F     1 != W4_0
                     460M          7    3   F     0  = V4_2
                     460M          7    6   F     1 != V4_2
                     460M         12    7        -1 != W2_3
                     470M          7    5        -1 != W4_1
                     470M          4    8   F    -1 != V3_0
                     470M          8    1         1  = U3_2
                     470M          8    4   F     0  = V4_1
                     470M          7    2         0 != W4_0
                     470M          9    3   F    -1  = U4_2
                     470M          8    6         1  = U0_2
                     470M          7    7         0  = W2_1
                     480M          7    5         0 != W4_3
                     480M          4    8        -1  = W3_2
                     480M          7    1   F    -1 != U0_1
                     480M          7    4        -1 != U2_2
 ! Time = 4930.18s, Average fail depth = 19, Memory usage = 2.1 GB
 !               Branches  Non-fixed    W       Branch decision
                     480M          7    2   F    -1  = W3_1
                     480M          9    3   F     1 != W4_3
                     480M          8    6   F     0  = U4_1
                     480M          6    7   F    -1  = W2_1
                     490M          8    5         0 != V0_3
                     490M          4    8   F     0  = W2_2
                     490M          7    1   F     0 != V2_1
                     490M          8    4         1  = V1_1
                     490M          7    2         0  = U3_1
                     490M          7    3   F     1  = U3_1
                     490M          7    6   F     1 != U4_0
                     490M          7    7        -1 != V2_2
                     500M          4    8         1 != U1_1
                     500M          7    5   F    -1  = W3_3
                     500M          7    1   F     1 != W4_0
                     500M          7    4         1  = V0_3
                     500M          6    2         0  = W2_0
                     500M          8    3        -1 != W4_3
                     500M          8    6         1  = W1_3
                     500M          8    7   F     0  = V0_1
 ! Time = 5220.81s, Average fail depth = 19, Memory usage = 2.2 GB
 !               Branches  Non-fixed    W       Branch decision
                     510M          4    8   F     0  = W3_3
                     510M          7    5        -1  = V2_2
                     510M          8    4         0 != V1_2
                     510M          6    1        -1 != V1_1
                     510M          7    2   F     1  = V3_3
                     510M          7    3        -1 != U3_3
                     510M          8    6   F     1  = W3_1
                     510M          7    7   F     1  = V1_0
                     520M          4    8   F    -1 != W4_3
                     520M          7    5         0 != W0_1
                     520M          7    4        -1 != W3_0
                     520M          7    2   F     1 != U2_1
                     520M          8    1   F    -1 != W4_0
                     520M         12    3        -1 != V0_1
                     520M          6    6        -1 != V0_2
                     520M          7    7         1  = W0_3
                     530M          4    8        -1 != V1_3
                     530M          8    4   F     1  = U1_0
                     530M          7    5   F    -1  = V1_1
                     530M          7    1   F     0 != U0_0
 ! Time = 5451.63s, Average fail depth = 18, Memory usage = 2.3 GB
 !               Branches  Non-fixed    W       Branch decision
                     530M          7    2   F     1 != W2_1
                     530M          8    3         1 != W0_3
                     530M          6    6        -1  = W2_3
                     530M          7    7        -1  = W4_0
                     540M          4    8   F     0  = W1_2
                     540M          7    4   F     1 != W1_1
                     540M          8    1         0 != U3_2
                     540M          8    5   F     1 != W4_3
                     540M          8    2   F     1 != U3_1
                     540M         10    3   F    -1 != U2_2
                     540M          6    6   F    -1  = V1_0
                     540M          8    7         0  = W0_1
                     550M          4    8   F    -1 != V0_1
                     550M          9    4   F     0 != U1_0
                     550M          7    1   F     1 != U3_2
                     550M          7    2         0  = V4_1
                     550M          8    5         1  = W3_1
                     550M         10    6         0  = W2_1
                     550M          7    3   F    -1 != W3_2
                     550M          7    7   F    -1 != U4_1
 ! Time = 5735.02s, Average fail depth = 18, Memory usage = 2.4 GB
 !               Branches  Non-fixed    W       Branch decision
                     560M          4    8   F     0 != V1_1
                     560M          7    4   F     1 != V3_1
                     560M          7    1   F     1 != V3_1
                     560M          7    5         1 != V3_2
                     560M          8    2        -1 != U0_0
                     560M          9    3         1 != U0_1
                     560M          9    6   F     1 != V3_0
                     560M          7    7   F    -1 != V4_0
                     570M          4    8   F     1 != V1_2
                     570M          8    1   F     1 != W0_0
                     570M          8    4         0 != V4_1
                     570M         10    5         0  = W2_0
                     570M          9    2        -1 != V0_1
                     570M         10    3   F    -1  = U4_2
                     570M          7    6         1  = V3_1
                     570M         12    7   F     0 != V1_3
                     580M          4    8   F    -1 != U4_0
                     580M          7    4         1 != U0_2
                     580M          7    1        -1 != V1_3
                     580M          7    5   F     0 != W3_0
 ! Time = 5976.66s, Average fail depth = 18, Memory usage = 2.5 GB
 !               Branches  Non-fixed    W       Branch decision
                     580M          7    2   F     1 != W2_1
                     580M         10    3         1  = U2_0
                     580M          8    6         1 != W1_1
                     580M         12    7   F     1  = V4_3
                     590M          4    8         0  = V2_1
                     590M          7    1   F    -1  = W1_0
                     590M          8    4         0 != W3_1
                     590M          7    5         0 != U2_0
                     590M          9    2   F    -1 != U0_2
                     590M          8    3   F    -1  = W1_2
                     590M          7    6   F     0  = U3_2
                     590M         11    7         1  = V4_3
                     600M          4    8   F        -
                     600M         10    4         1 != V2_1
                     600M          8    1        -1 != V0_2
                     600M          7    5         0  = V4_2
                     600M          6    2   F     1 != U2_0
                     600M          9    6   F     0  = W4_3
                     600M          9    3   F    -1 != V2_3
                     600M          6    7         0  = U1_2
 ! Time = 6252.06s, Average fail depth = 19, Memory usage = 2.6 GB
 !               Branches  Non-fixed    W       Branch decision
                     610M          4    8            -
                     610M          6    4   F     1 != W0_0
                     610M          9    1   F     1  = V2_1
                     610M          8    5        -1  = W0_0
                     610M          8    2   F    -1  = V4_2
                     610M         13    3   F    -1  = V2_1
                     610M          8    6   F     1 != W4_0
                     610M          6    7   F    -1  = U1_1
                     620M          9    4   F     0 != V4_2
                     620M          4    8            -
                     620M          8    1        -1  = U0_1
                     620M          8    5         0  = U1_1
                     620M          6    2         0  = W3_0
                     620M          8    3         0  = U1_0
                     620M          7    6   F     1  = V4_1
                     620M         11    7         0  = W1_3
                     630M          4    8         0 != V1_3
                     630M          7    4        -1 != W1_3
                     630M          8    1        -1 != U2_1
                     630M          7    2         0  = V3_1
 ! Time = 6512.06s, Average fail depth = 18, Memory usage = 2.7 GB
 !               Branches  Non-fixed    W       Branch decision
                     630M          7    5   F    -1  = W1_0
                     630M          8    3        -1 != U4_1
                     630M          8    6   F    -1  = W1_3
                     630M          9    7   F     0  = W4_3
                     640M         11    4   F    -1 != V0_2
                     640M          4    8         0 != W4_2
                     640M          8    1         0  = V1_1
                     640M          7    5   F    -1 != V4_2
                     640M          8    2         0  = V2_2
                     640M         12    3        -1 != V1_2
                     640M          6    6   F     1 != U3_0
                     640M          7    7   F    -1 != U1_2
                     650M          8    4   F     0 != V4_2
                     650M          4    8        -1  = W3_1
                     650M          7    1         1 != U0_1
                     650M          7    2         1 != V3_0
                     650M          8    5        -1 != U3_3
                     650M         12    3         1 != V2_0
                     650M          9    6   F     1  = V3_1
                     650M          7    7   F    -1 != V4_1
 ! Time = 6769.45s, Average fail depth = 18, Memory usage = 2.8 GB
 !               Branches  Non-fixed    W       Branch decision
                     660M          9    4         0 != U1_1
                     660M          4    8   F    -1 != V2_3
                     660M          7    1   F    -1 != U4_2
                     660M          8    5   F     1 != W0_3
                     660M         11    3        -1  = U4_1
                     660M          8    2         0 != U3_0
                     660M          8    6   F    -1  = V1_1
                     660M         12    7   F     1 != U0_3
                     670M          7    4   F    -1  = V3_2
                     670M          4    8         1 != V4_3
                     670M          9    1         0  = W1_1
                     670M          7    5         0 != U4_1
                     670M         10    6        -1  = U0_0
                     670M          6    2   F    -1  = W1_1
                     670M          8    3   F    -1 != V4_3
                     680M          7    4        -1 != V3_2
                     670M          9    7         1 != V3_1
                     680M          4    8   F     1  = V2_2
                     680M          7    1   F    -1  = U3_2
                     680M          7    5   F    -1  = W2_3
 ! Time = 7043.43s, Average fail depth = 18, Memory usage = 2.9 GB
 !               Branches  Non-fixed    W       Branch decision
                     680M          9    6        -1 != W0_0
                     680M          8    2   F     0  = U0_0
                     680M         10    3   F    -1 != V3_1
                     690M         14    4         1 != V4_2
                     690M          4    8         1 != V4_0
                     690M          8    1         1 != V2_3
submitit WARNING (2023-04-30 15:42:42,351) - Bypassing signal SIGCONT
submitit INFO (2023-04-30 15:42:42,365) - Job has timed out. Ran 119 minutes out of requested 121 minutes.
submitit WARNING (2023-04-30 15:42:42,365) - Caught signal SIGUSR2 on cpunode24: this job is timed-out.
submitit INFO (2023-04-30 15:42:42,365) - Not checkpointing nor requeuing since I am a slave (procid=1).
                     680M          9    7        -1 != U4_3
                     690M          7    5   F     1  = U1_0
                     690M          9    6         0 != V3_2
                     690M          7    2         1  = V2_3
                     690M         10    3   F     0  = V2_1
 ! ----------------------------------------------------------------------------
 ! Search terminated by limit, no solution found.
 ! ----------------------------------------------------------------------------
 ! Number of branches     : 5557635901
 ! Number of fails        : 2733666239
 ! Total memory usage     : 3.1 GB (3.1 GB CP Optimizer + 0.0 GB Concert)
 ! Time spent in solve    : 7200.04s (7200.03s engine + 0.02s extraction)
 ! Search speed (br. / s) : 771890.7
 ! ----------------------------------------------------------------------------
Unknown
Saving stats to: /h/30/pashootan/Matrix-Mult-CP/logs/2x2x2_5_Apr30_13:43:41/27528_1_stats.csv
submitit INFO (2023-04-30 15:43:44,313) - Job completed successfully
